p cnf 430 1488
-191 155 0
-191 -104 0
-191 -87 0
-191 25 0
-191 -173 0
191 -155 104 87 -25 173 0
-192 -38 0
-192 -133 0
-192 -144 0
-192 -71 0
-192 -142 0
192 38 133 144 71 142 0
-193 16 0
-193 -183 0
-193 117 0
-193 61 0
-193 56 0
193 -16 183 -117 -61 -56 0
-194 11 0
-194 -74 0
-194 40 0
-194 171 0
-194 2 0
194 -11 74 -40 -171 -2 0
-195 77 0
-195 -153 0
-195 -95 0
-195 73 0
-195 170 0
195 -77 153 95 -73 -170 0
191 192 193 194 195 0
-196 177 0
-196 -189 0
-196 -164 0
-196 -151 0
-196 -168 0
196 -177 189 164 151 168 0
-197 139 0
-197 32 0
-197 94 0
-197 -106 0
-197 -21 0
197 -139 -32 -94 106 21 0
-198 115 0
-198 176 0
-198 -159 0
-198 102 0
-198 190 0
198 -115 -176 159 -102 -190 0
-199 -106 0
-199 93 0
-199 -85 0
-199 62 0
-199 -42 0
199 106 -93 85 -62 42 0
-200 -43 0
-200 -119 0
-200 -124 0
-200 175 0
-200 42 0
200 43 119 124 -175 -42 0
196 197 198 199 200 0
-201 21 0
-201 -122 0
-201 124 0
-201 -147 0
-201 -106 0
201 -21 122 -124 147 106 0
-202 25 0
-202 -33 0
-202 -157 0
-202 -139 0
-202 -187 0
202 -25 33 157 139 187 0
-203 146 0
-203 125 0
-203 164 0
-203 25 0
-203 11 0
203 -146 -125 -164 -25 -11 0
-204 155 0
-204 -38 0
-204 49 0
-204 107 0
-204 -171 0
204 -155 38 -49 -107 171 0
-205 -168 0
-205 -72 0
-205 134 0
-205 149 0
-205 74 0
205 168 72 -134 -149 -74 0
201 202 203 204 205 0
-206 -176 0
-206 92 0
-206 58 0
-206 -160 0
-206 150 0
206 176 -92 -58 160 -150 0
-207 28 0
-207 8 0
-207 -20 0
-207 -112 0
-207 -123 0
207 -28 -8 20 112 123 0
-208 1 0
-208 82 0
-208 134 0
-208 176 0
-208 6 0
208 -1 -82 -134 -176 -6 0
-209 -144 0
-209 -75 0
-209 42 0
-209 6 0
-209 -70 0
209 144 75 -42 -6 70 0
-210 -20 0
-210 -54 0
-210 86 0
-210 -131 0
-210 50 0
210 20 54 -86 131 -50 0
206 207 208 209 210 0
-211 109 0
-211 -10 0
-211 -130 0
-211 103 0
-211 120 0
211 -109 10 130 -103 -120 0
-212 123 0
-212 86 0
-212 -144 0
-212 20 0
-212 3 0
212 -123 -86 144 -20 -3 0
-213 -51 0
-213 -147 0
-213 -79 0
-213 65 0
-213 67 0
213 51 147 79 -65 -67 0
-214 161 0
-214 -179 0
-214 -102 0
-214 -37 0
-214 141 0
214 -161 179 102 37 -141 0
-215 -152 0
-215 -107 0
-215 150 0
-215 -37 0
-215 -139 0
215 152 107 -150 37 139 0
211 212 213 214 215 0
-216 -88 0
-216 34 0
-216 27 0
-216 -172 0
-216 23 0
216 88 -34 -27 172 -23 0
-217 -108 0
-217 184 0
-217 -22 0
-217 129 0
-217 -56 0
217 108 -184 22 -129 56 0
-218 -139 0
-218 -113 0
-218 182 0
-218 -78 0
-218 183 0
218 139 113 -182 78 -183 0
-219 -37 0
-219 65 0
-219 -144 0
-219 -151 0
-219 -179 0
219 37 -65 144 151 179 0
-220 -58 0
-220 156 0
-220 -27 0
-220 -80 0
-220 -8 0
220 58 -156 27 80 8 0
216 217 218 219 220 0
-221 14 0
-221 172 0
-221 95 0
-221 84 0
-221 -51 0
221 -14 -172 -95 -84 51 0
-222 -90 0
-222 186 0
-222 -26 0
-222 153 0
-222 -174 0
222 90 -186 26 -153 174 0
-223 126 0
-223 22 0
-223 84 0
-223 120 0
-223 -107 0
223 -126 -22 -84 -120 107 0
-224 106 0
-224 -164 0
-224 42 0
-224 4 0
-224 113 0
224 -106 164 -42 -4 -113 0
-225 -17 0
-225 57 0
-225 -144 0
-225 135 0
-225 180 0
225 17 -57 144 -135 -180 0
221 222 223 224 225 0
-226 -167 0
-226 82 0
-226 -137 0
-226 3 0
-226 -170 0
226 167 -82 137 -3 170 0
-227 -184 0
-227 -153 0
-227 -2 0
-227 -183 0
-227 111 0
227 184 153 2 183 -111 0
-228 -51 0
-228 62 0
-228 20 0
-228 -140 0
-228 103 0
228 51 -62 -20 140 -103 0
-229 96 0
-229 -78 0
-229 -69 0
-229 41 0
-229 55 0
229 -96 78 69 -41 -55 0
-230 -11 0
-230 -187 0
-230 190 0
-230 58 0
-230 -88 0
230 11 187 -190 -58 88 0
226 227 228 229 230 0
-231 7 0
-231 -50 0
-231 -70 0
-231 180 0
-231 -190 0
231 -7 50 70 -180 190 0
-232 -104 0
-232 69 0
-232 75 0
-232 189 0
-232 40 0
232 104 -69 -75 -189 -40 0
-233 -32 0
-233 -165 0
-233 -78 0
-233 172 0
-233 -41 0
233 32 165 78 -172 41 0
-234 -35 0
-234 112 0
-234 -134 0
-234 -60 0
-234 -94 0
234 35 -112 134 60 94 0
-235 -187 0
-235 -171 0
-235 21 0
-235 -27 0
-235 138 0
235 187 171 -21 27 -138 0
231 232 233 234 235 0
-236 168 0
-236 -188 0
-236 -108 0
-236 93 0
-236 -85 0
236 -168 188 108 -93 85 0
-237 128 0
-237 79 0
-237 129 0
-237 109 0
-237 168 0
237 -128 -79 -129 -109 -168 0
-238 42 0
-238 54 0
-238 173 0
-238 93 0
-238 -135 0
238 -42 -54 -173 -93 135 0
-239 -34 0
-239 176 0
-239 174 0
-239 48 0
-239 136 0
239 34 -176 -174 -48 -136 0
-240 20 0
-240 143 0
-240 32 0
-240 46 0
-240 -127 0
240 -20 -143 -32 -46 127 0
236 237 238 239 240 0
-241 -46 0
-241 150 0
-241 82 0
-241 129 0
-241 50 0
241 46 -150 -82 -129 -50 0
-242 -71 0
-242 -94 0
-242 -39 0
-242 -72 0
-242 -43 0
242 71 94 39 72 43 0
-243 169 0
-243 -23 0
-243 -22 0
-243 -179 0
-243 -135 0
243 -169 23 22 179 135 0
-244 -170 0
-244 11 0
-244 -123 0
-244 131 0
-244 -7 0
244 170 -11 123 -131 7 0
-245 -70 0
-245 -168 0
-245 12 0
-245 80 0
-245 48 0
245 70 168 -12 -80 -48 0
241 242 243 244 245 0
-246 -81 0
-246 -69 0
-246 46 0
-246 -91 0
-246 102 0
246 81 69 -46 91 -102 0
-247 48 0
-247 90 0
-247 114 0
-247 165 0
-247 -53 0
247 -48 -90 -114 -165 53 0
-248 99 0
-248 36 0
-248 57 0
-248 -140 0
-248 -73 0
248 -99 -36 -57 140 73 0
-249 113 0
-249 -174 0
-249 18 0
-249 20 0
-249 163 0
249 -113 174 -18 -20 -163 0
-250 -7 0
-250 -22 0
-250 137 0
-250 -167 0
-250 -163 0
250 7 22 -137 167 163 0
246 247 248 249 250 0
-251 -167 0
-251 114 0
-251 31 0
-251 30 0
-251 71 0
251 167 -114 -31 -30 -71 0
-252 157 0
-252 -69 0
-252 163 0
-252 -145 0
-252 -111 0
252 -157 69 -163 145 111 0
-253 -101 0
-253 117 0
-253 13 0
-253 -171 0
-253 164 0
253 101 -117 -13 171 -164 0
-254 8 0
-254 34 0
-254 149 0
-254 -142 0
-254 -137 0
254 -8 -34 -149 142 137 0
-255 -67 0
-255 -77 0
-255 -157 0
-255 23 0
-255 176 0
255 67 77 157 -23 -176 0
251 252 253 254 255 0
-256 -98 0
-256 35 0
-256 -142 0
-256 166 0
-256 -137 0
256 98 -35 142 -166 137 0
-257 120 0
-257 76 0
-257 -104 0
-257 85 0
-257 -185 0
257 -120 -76 104 -85 185 0
-258 -113 0
-258 -36 0
-258 -146 0
-258 -25 0
-258 15 0
258 113 36 146 25 -15 0
-259 -178 0
-259 145 0
-259 81 0
-259 -153 0
-259 155 0
259 178 -145 -81 153 -155 0
-260 -3 0
-260 -129 0
-260 158 0
-260 -128 0
-260 -51 0
260 3 129 -158 128 51 0
256 257 258 259 260 0
-261 17 0
-261 -15 0
-261 -152 0
-261 -2 0
-261 -153 0
261 -17 15 152 2 153 0
-262 78 0
-262 107 0
-262 -14 0
-262 -53 0
-262 -172 0
262 -78 -107 14 53 172 0
-263 -3 0
-263 -91 0
-263 113 0
-263 119 0
-263 -150 0
263 3 91 -113 -119 150 0
-264 -158 0
-264 -19 0
-264 -156 0
-264 39 0
-264 -153 0
264 158 19 156 -39 153 0
-265 -106 0
-265 48 0
-265 -161 0
-265 -76 0
-265 32 0
265 106 -48 161 76 -32 0
261 262 263 264 265 0
-266 77 0
-266 -70 0
-266 -158 0
-266 -145 0
-266 -51 0
266 -77 70 158 145 51 0
-267 5 0
-267 -11 0
-267 -145 0
-267 -180 0
-267 172 0
267 -5 11 145 180 -172 0
-268 159 0
-268 123 0
-268 102 0
-268 -72 0
-268 -171 0
268 -159 -123 -102 72 171 0
-269 -107 0
-269 -59 0
-269 -85 0
-269 147 0
-269 69 0
269 107 59 85 -147 -69 0
-270 95 0
-270 163 0
-270 30 0
-270 59 0
-270 142 0
270 -95 -163 -30 -59 -142 0
266 267 268 269 270 0
-271 172 0
-271 45 0
-271 -51 0
-271 157 0
-271 15 0
271 -172 -45 51 -157 -15 0
-272 -141 0
-272 108 0
-272 143 0
-272 -136 0
-272 165 0
272 141 -108 -143 136 -165 0
-273 -125 0
-273 132 0
-273 127 0
-273 135 0
-273 167 0
273 125 -132 -127 -135 -167 0
-274 49 0
-274 -186 0
-274 -70 0
-274 20 0
-274 185 0
274 -49 186 70 -20 -185 0
-275 -155 0
-275 103 0
-275 71 0
-275 -167 0
-275 -106 0
275 155 -103 -71 167 106 0
271 272 273 274 275 0
-276 -33 0
-276 159 0
-276 -158 0
-276 -99 0
-276 29 0
276 33 -159 158 99 -29 0
-277 15 0
-277 -99 0
-277 -39 0
-277 -18 0
-277 30 0
277 -15 99 39 18 -30 0
-278 24 0
-278 2 0
-278 -5 0
-278 -146 0
-278 -71 0
278 -24 -2 5 146 71 0
-279 -125 0
-279 -95 0
-279 117 0
-279 74 0
-279 -60 0
279 125 95 -117 -74 60 0
-280 72 0
-280 131 0
-280 -134 0
-280 38 0
-280 101 0
280 -72 -131 134 -38 -101 0
276 277 278 279 280 0
-281 -137 0
-281 -109 0
-281 -172 0
-281 89 0
-281 74 0
281 137 109 172 -89 -74 0
-282 -100 0
-282 -114 0
-282 -161 0
-282 43 0
-282 -132 0
282 100 114 161 -43 132 0
-283 190 0
-283 -188 0
-283 -150 0
-283 -120 0
-283 -180 0
283 -190 188 150 120 180 0
-284 77 0
-284 -145 0
-284 -1 0
-284 -84 0
-284 -144 0
284 -77 145 1 84 144 0
-285 136 0
-285 49 0
-285 -145 0
-285 79 0
-285 67 0
285 -136 -49 145 -79 -67 0
281 282 283 284 285 0
-286 -69 0
-286 -110 0
-286 -27 0
-286 4 0
-286 -37 0
286 69 110 27 -4 37 0
-287 -62 0
-287 73 0
-287 -167 0
-287 114 0
-287 -48 0
287 62 -73 167 -114 48 0
-288 -39 0
-288 -44 0
-288 68 0
-288 93 0
-288 149 0
288 39 44 -68 -93 -149 0
-289 81 0
-289 -132 0
-289 63 0
-289 59 0
-289 8 0
289 -81 132 -63 -59 -8 0
-290 171 0
-290 -52 0
-290 -88 0
-290 -140 0
-290 95 0
290 -171 52 88 140 -95 0
286 287 288 289 290 0
-291 108 0
-291 -16 0
-291 131 0
-291 -117 0
-291 -115 0
291 -108 16 -131 117 115 0
-292 150 0
-292 44 0
-292 177 0
-292 -56 0
-292 66 0
292 -150 -44 -177 56 -66 0
-293 140 0
-293 -185 0
-293 123 0
-293 154 0
-293 -10 0
293 -140 185 -123 -154 10 0
-294 116 0
-294 -17 0
-294 63 0
-294 131 0
-294 -27 0
294 -116 17 -63 -131 27 0
-295 -38 0
-295 -104 0
-295 -98 0
-295 -143 0
-295 70 0
295 38 104 98 143 -70 0
291 292 293 294 295 0
-296 185 0
-296 173 0
-296 165 0
-296 -37 0
-296 -133 0
296 -185 -173 -165 37 133 0
-297 90 0
-297 -164 0
-297 99 0
-297 94 0
-297 176 0
297 -90 164 -99 -94 -176 0
-298 123 0
-298 119 0
-298 -86 0
-298 158 0
-298 -190 0
298 -123 -119 86 -158 190 0
-299 62 0
-299 -184 0
-299 115 0
-299 -38 0
-299 -55 0
299 -62 184 -115 38 55 0
-300 79 0
-300 -105 0
-300 34 0
-300 -23 0
-300 160 0
300 -79 105 -34 23 -160 0
296 297 298 299 300 0
-301 -103 0
-301 49 0
-301 -161 0
-301 32 0
-301 80 0
301 103 -49 161 -32 -80 0
-302 112 0
-302 -55 0
-302 61 0
-302 -176 0
-302 -105 0
302 -112 55 -61 176 105 0
-303 -33 0
-303 -139 0
-303 -55 0
-303 -186 0
-303 189 0
303 33 139 55 186 -189 0
-304 -56 0
-304 -68 0
-304 -104 0
-304 -117 0
-304 154 0
304 56 68 104 117 -154 0
-305 71 0
-305 -64 0
-305 -136 0
-305 -112 0
-305 -4 0
305 -71 64 136 112 4 0
301 302 303 304 305 0
-306 -164 0
-306 188 0
-306 -68 0
-306 189 0
-306 -81 0
306 164 -188 68 -189 81 0
-307 48 0
-307 168 0
-307 -98 0
-307 165 0
-307 160 0
307 -48 -168 98 -165 -160 0
-308 143 0
-308 27 0
-308 137 0
-308 168 0
-308 -48 0
308 -143 -27 -137 -168 48 0
-309 3 0
-309 -98 0
-309 82 0
-309 178 0
-309 -153 0
309 -3 98 -82 -178 153 0
-310 19 0
-310 28 0
-310 -116 0
-310 23 0
-310 100 0
310 -19 -28 116 -23 -100 0
306 307 308 309 310 0
-311 -59 0
-311 33 0
-311 103 0
-311 -44 0
-311 140 0
311 59 -33 -103 44 -140 0
-312 -130 0
-312 -31 0
-312 18 0
-312 -8 0
-312 104 0
312 130 31 -18 8 -104 0
-313 41 0
-313 -102 0
-313 50 0
-313 -167 0
-313 73 0
313 -41 102 -50 167 -73 0
-314 127 0
-314 31 0
-314 107 0
-314 -24 0
-314 39 0
314 -127 -31 -107 24 -39 0
-315 -71 0
-315 36 0
-315 -64 0
-315 66 0
-315 -50 0
315 71 -36 64 -66 50 0
311 312 313 314 315 0
-316 56 0
-316 85 0
-316 115 0
-316 183 0
-316 34 0
316 -56 -85 -115 -183 -34 0
-317 88 0
-317 -115 0
-317 -29 0
-317 -112 0
-317 -140 0
317 -88 115 29 112 140 0
-318 188 0
-318 57 0
-318 39 0
-318 -176 0
-318 152 0
318 -188 -57 -39 176 -152 0
-319 79 0
-319 -138 0
-319 113 0
-319 -33 0
-319 -142 0
319 -79 138 -113 33 142 0
-320 -5 0
-320 22 0
-320 63 0
-320 59 0
-320 173 0
320 5 -22 -63 -59 -173 0
316 317 318 319 320 0
-321 -50 0
-321 -76 0
-321 75 0
-321 -179 0
-321 77 0
321 50 76 -75 179 -77 0
-322 15 0
-322 -32 0
-322 -23 0
-322 182 0
-322 168 0
322 -15 32 23 -182 -168 0
-323 -72 0
-323 96 0
-323 83 0
-323 163 0
-323 20 0
323 72 -96 -83 -163 -20 0
-324 67 0
-324 -101 0
-324 -54 0
-324 -25 0
-324 -40 0
324 -67 101 54 25 40 0
-325 -161 0
-325 150 0
-325 76 0
-325 -73 0
-325 34 0
325 161 -150 -76 73 -34 0
321 322 323 324 325 0
-326 -7 0
-326 -94 0
-326 31 0
-326 158 0
-326 80 0
326 7 94 -31 -158 -80 0
-327 -152 0
-327 -87 0
-327 25 0
-327 187 0
-327 -94 0
327 152 87 -25 -187 94 0
-328 159 0
-328 34 0
-328 -65 0
-328 68 0
-328 59 0
328 -159 -34 65 -68 -59 0
-329 134 0
-329 -175 0
-329 71 0
-329 85 0
-329 -27 0
329 -134 175 -71 -85 27 0
-330 173 0
-330 -34 0
-330 -99 0
-330 -40 0
-330 -81 0
330 -173 34 99 40 81 0
326 327 328 329 330 0
-331 157 0
-331 -67 0
-331 43 0
-331 111 0
-331 -3 0
331 -157 67 -43 -111 3 0
-332 101 0
-332 -141 0
-332 36 0
-332 34 0
-332 -35 0
332 -101 141 -36 -34 35 0
-333 -8 0
-333 9 0
-333 6 0
-333 -132 0
-333 97 0
333 8 -9 -6 132 -97 0
-334 -66 0
-334 -35 0
-334 -179 0
-334 -166 0
-334 -119 0
334 66 35 179 166 119 0
-335 97 0
-335 84 0
-335 -185 0
-335 -133 0
-335 -20 0
335 -97 -84 185 133 20 0
331 332 333 334 335 0
-336 -101 0
-336 -18 0
-336 -25 0
-336 -51 0
-336 156 0
336 101 18 25 51 -156 0
-337 -66 0
-337 -104 0
-337 -102 0
-337 92 0
-337 -47 0
337 66 104 102 -92 47 0
-338 171 0
-338 -5 0
-338 -177 0
-338 -105 0
-338 -126 0
338 -171 5 177 105 126 0
-339 -55 0
-339 -128 0
-339 9 0
-339 66 0
-339 162 0
339 55 128 -9 -66 -162 0
-340 26 0
-340 -90 0
-340 27 0
-340 -3 0
-340 -7 0
340 -26 90 -27 3 7 0
336 337 338 339 340 0
-341 46 0
-341 -37 0
-341 172 0
-341 -166 0
-341 -29 0
341 -46 37 -172 166 29 0
-342 -165 0
-342 -22 0
-342 -13 0
-342 -4 0
-342 -112 0
342 165 22 13 4 112 0
-343 21 0
-343 51 0
-343 174 0
-343 -95 0
-343 -156 0
343 -21 -51 -174 95 156 0
-344 -103 0
-344 -178 0
-344 163 0
-344 -6 0
-344 -24 0
344 103 178 -163 6 24 0
-345 18 0
-345 -148 0
-345 23 0
-345 66 0
-345 -82 0
345 -18 148 -23 -66 82 0
341 342 343 344 345 0
-346 -5 0
-346 81 0
-346 -19 0
-346 110 0
-346 146 0
346 5 -81 19 -110 -146 0
-347 -69 0
-347 -96 0
-347 35 0
-347 27 0
-347 -94 0
347 69 96 -35 -27 94 0
-348 -114 0
-348 -118 0
-348 82 0
-348 -95 0
-348 133 0
348 114 118 -82 95 -133 0
-349 14 0
-349 26 0
-349 -188 0
-349 -101 0
-349 -172 0
349 -14 -26 188 101 172 0
-350 -120 0
-350 48 0
-350 -8 0
-350 -72 0
-350 1 0
350 120 -48 8 72 -1 0
346 347 348 349 350 0
-351 -28 0
-351 140 0
-351 39 0
-351 92 0
-351 -83 0
351 28 -140 -39 -92 83 0
-352 -65 0
-352 106 0
-352 -145 0
-352 -100 0
-352 -82 0
352 65 -106 145 100 82 0
-353 110 0
-353 91 0
-353 -119 0
-353 -141 0
-353 187 0
353 -110 -91 119 141 -187 0
-354 59 0
-354 -113 0
-354 6 0
-354 91 0
-354 33 0
354 -59 113 -6 -91 -33 0
-355 -188 0
-355 -185 0
-355 -113 0
-355 -152 0
-355 112 0
355 188 185 113 152 -112 0
351 352 353 354 355 0
-356 152 0
-356 -140 0
-356 -6 0
-356 114 0
-356 103 0
356 -152 140 6 -114 -103 0
-357 116 0
-357 44 0
-357 82 0
-357 -97 0
-357 -3 0
357 -116 -44 -82 97 3 0
-358 -2 0
-358 3 0
-358 -170 0
-358 37 0
-358 -172 0
358 2 -3 170 -37 172 0
-359 22 0
-359 120 0
-359 -117 0
-359 87 0
-359 150 0
359 -22 -120 117 -87 -150 0
-360 -22 0
-360 25 0
-360 -31 0
-360 -148 0
-360 44 0
360 22 -25 31 148 -44 0
356 357 358 359 360 0
-361 -163 0
-361 -137 0
-361 81 0
-361 183 0
-361 -37 0
361 163 137 -81 -183 37 0
-362 47 0
-362 159 0
-362 -25 0
-362 158 0
-362 -58 0
362 -47 -159 25 -158 58 0
-363 85 0
-363 23 0
-363 121 0
-363 82 0
-363 -9 0
363 -85 -23 -121 -82 9 0
-364 -187 0
-364 126 0
-364 122 0
-364 5 0
-364 -179 0
364 187 -126 -122 -5 179 0
-365 120 0
-365 37 0
-365 44 0
-365 118 0
-365 -51 0
365 -120 -37 -44 -118 51 0
361 362 363 364 365 0
-366 81 0
-366 97 0
-366 112 0
-366 86 0
-366 -75 0
366 -81 -97 -112 -86 75 0
-367 -176 0
-367 -121 0
-367 -14 0
-367 -11 0
-367 19 0
367 176 121 14 11 -19 0
-368 -163 0
-368 -34 0
-368 102 0
-368 -119 0
-368 -22 0
368 163 34 -102 119 22 0
-369 127 0
-369 94 0
-369 -52 0
-369 -172 0
-369 160 0
369 -127 -94 52 172 -160 0
-370 38 0
-370 181 0
-370 84 0
-370 -11 0
-370 -99 0
370 -38 -181 -84 11 99 0
366 367 368 369 370 0
-371 67 0
-371 158 0
-371 38 0
-371 -133 0
-371 61 0
371 -67 -158 -38 133 -61 0
-372 84 0
-372 155 0
-372 -126 0
-372 -72 0
-372 -58 0
372 -84 -155 126 72 58 0
-373 101 0
-373 94 0
-373 156 0
-373 36 0
-373 176 0
373 -101 -94 -156 -36 -176 0
-374 -59 0
-374 -125 0
-374 136 0
-374 1 0
-374 109 0
374 59 125 -136 -1 -109 0
-375 115 0
-375 166 0
-375 154 0
-375 -35 0
-375 -180 0
375 -115 -166 -154 35 180 0
371 372 373 374 375 0
-376 57 0
-376 -18 0
-376 -35 0
-376 144 0
-376 20 0
376 -57 18 35 -144 -20 0
-377 -173 0
-377 18 0
-377 -145 0
-377 -87 0
-377 167 0
377 173 -18 145 87 -167 0
-378 18 0
-378 -180 0
-378 51 0
-378 -94 0
-378 171 0
378 -18 180 -51 94 -171 0
-379 99 0
-379 -168 0
-379 -121 0
-379 127 0
-379 61 0
379 -99 168 121 -127 -61 0
-380 63 0
-380 39 0
-380 47 0
-380 67 0
-380 -42 0
380 -63 -39 -47 -67 42 0
376 377 378 379 380 0
-381 -94 0
-381 30 0
-381 45 0
-381 -66 0
-381 31 0
381 94 -30 -45 66 -31 0
-382 86 0
-382 -164 0
-382 -129 0
-382 -48 0
-382 -152 0
382 -86 164 129 48 152 0
-383 150 0
-383 77 0
-383 56 0
-383 -174 0
-383 -45 0
383 -150 -77 -56 174 45 0
-384 -131 0
-384 13 0
-384 67 0
-384 157 0
-384 152 0
384 131 -13 -67 -157 -152 0
-385 -59 0
-385 -156 0
-385 -149 0
-385 -174 0
-385 -62 0
385 59 156 149 174 62 0
381 382 383 384 385 0
-386 67 0
-386 83 0
-386 -110 0
-386 82 0
-386 -52 0
386 -67 -83 110 -82 52 0
-387 125 0
-387 -120 0
-387 18 0
-387 -180 0
-387 117 0
387 -125 120 -18 180 -117 0
-388 160 0
-388 -48 0
-388 39 0
-388 -131 0
-388 42 0
388 -160 48 -39 131 -42 0
-389 139 0
-389 97 0
-389 162 0
-389 -7 0
-389 -39 0
389 -139 -97 -162 7 39 0
-390 118 0
-390 -74 0
-390 140 0
-390 144 0
-390 -178 0
390 -118 74 -140 -144 178 0
386 387 388 389 390 0
-391 -126 0
-391 51 0
-391 54 0
-391 -101 0
-391 -190 0
391 126 -51 -54 101 190 0
-392 35 0
-392 -178 0
-392 46 0
-392 -40 0
-392 81 0
392 -35 178 -46 40 -81 0
-393 -37 0
-393 -136 0
-393 22 0
-393 -85 0
-393 161 0
393 37 136 -22 85 -161 0
-394 92 0
-394 65 0
-394 116 0
-394 187 0
-394 42 0
394 -92 -65 -116 -187 -42 0
-395 -30 0
-395 -23 0
-395 -33 0
-395 87 0
-395 59 0
395 30 23 33 -87 -59 0
391 392 393 394 395 0
-396 -184 0
-396 64 0
-396 -174 0
-396 117 0
-396 -112 0
396 184 -64 174 -117 112 0
-397 100 0
-397 -180 0
-397 79 0
-397 -161 0
-397 85 0
397 -100 180 -79 161 -85 0
-398 85 0
-398 -142 0
-398 -47 0
-398 34 0
-398 -25 0
398 -85 142 47 -34 25 0
-399 -93 0
-399 -70 0
-399 -4 0
-399 107 0
-399 132 0
399 93 70 4 -107 -132 0
-400 -186 0
-400 2 0
-400 154 0
-400 16 0
-400 -151 0
400 186 -2 -154 -16 151 0
396 397 398 399 400 0
-401 -64 0
-401 68 0
-401 160 0
-401 94 0
-401 -151 0
401 64 -68 -160 -94 151 0
-402 134 0
-402 67 0
-402 74 0
-402 -165 0
-402 150 0
402 -134 -67 -74 165 -150 0
-403 -8 0
-403 79 0
-403 89 0
-403 -45 0
-403 -2 0
403 8 -79 -89 45 2 0
-404 86 0
-404 -18 0
-404 122 0
-404 98 0
-404 130 0
404 -86 18 -122 -98 -130 0
-405 38 0
-405 80 0
-405 -4 0
-405 -20 0
-405 27 0
405 -38 -80 4 20 -27 0
401 402 403 404 405 0
-406 105 0
-406 114 0
-406 95 0
-406 -29 0
-406 -76 0
406 -105 -114 -95 29 76 0
-407 70 0
-407 -4 0
-407 -49 0
-407 22 0
-407 -175 0
407 -70 4 49 -22 175 0
-408 77 0
-408 -17 0
-408 88 0
-408 -165 0
-408 -187 0
408 -77 17 -88 165 187 0
-409 -92 0
-409 -81 0
-409 102 0
-409 -84 0
-409 172 0
409 92 81 -102 84 -172 0
-410 -106 0
-410 -146 0
-410 -182 0
-410 49 0
-410 122 0
410 106 146 182 -49 -122 0
406 407 408 409 410 0
-411 -138 0
-411 -139 0
-411 166 0
-411 10 0
-411 -109 0
411 138 139 -166 -10 109 0
-412 -103 0
-412 24 0
-412 157 0
-412 55 0
-412 127 0
412 103 -24 -157 -55 -127 0
-413 22 0
-413 167 0
-413 141 0
-413 42 0
-413 166 0
413 -22 -167 -141 -42 -166 0
-414 -105 0
-414 -77 0
-414 25 0
-414 163 0
-414 139 0
414 105 77 -25 -163 -139 0
-415 -113 0
-415 50 0
-415 -25 0
-415 -173 0
-415 88 0
415 113 -50 25 173 -88 0
411 412 413 414 415 0
-416 92 0
-416 3 0
-416 179 0
-416 -36 0
-416 -65 0
416 -92 -3 -179 36 65 0
-417 -32 0
-417 85 0
-417 -112 0
-417 -150 0
-417 4 0
417 32 -85 112 150 -4 0
-418 -50 0
-418 -66 0
-418 149 0
-418 -78 0
-418 -161 0
418 50 66 -149 78 161 0
-419 98 0
-419 171 0
-419 63 0
-419 23 0
-419 -143 0
419 -98 -171 -63 -23 143 0
-420 181 0
-420 -22 0
-420 -4 0
-420 -36 0
-420 80 0
420 -181 22 4 36 -80 0
416 417 418 419 420 0
-421 -123 0
-421 31 0
-421 166 0
-421 -23 0
-421 61 0
421 123 -31 -166 23 -61 0
-422 -78 0
-422 -55 0
-422 112 0
-422 -169 0
-422 97 0
422 78 55 -112 169 -97 0
-423 -46 0
-423 104 0
-423 -112 0
-423 122 0
-423 85 0
423 46 -104 112 -122 -85 0
-424 56 0
-424 -106 0
-424 -51 0
-424 -54 0
-424 68 0
424 -56 106 51 54 -68 0
-425 -35 0
-425 143 0
-425 -129 0
-425 111 0
-425 -190 0
425 35 -143 129 -111 190 0
421 422 423 424 425 0
-426 156 0
-426 80 0
-426 106 0
-426 -133 0
-426 91 0
426 -156 -80 -106 133 -91 0
-427 -97 0
-427 98 0
-427 85 0
-427 -100 0
-427 -12 0
427 97 -98 -85 100 12 0
-428 60 0
-428 26 0
-428 -130 0
-428 -49 0
-428 80 0
428 -60 -26 130 49 -80 0
-429 -68 0
-429 141 0
-429 179 0
-429 173 0
-429 -175 0
429 68 -141 -179 -173 175 0
-430 -115 0
-430 53 0
-430 -4 0
-430 84 0
-430 147 0
430 115 -53 4 -84 -147 0
426 427 428 429 430 0
